width = 30;

n_circuits = 28;

circuit_x = array1d(1..28, [5, 5, 8, 8, 13, 11, 11, 5, 5, 3, 3, 11, 11, 4, 4, 7,
    5, 5, 3, 3, 4, 4, 2, 2, 5, 5, 3, 3]);

circuit_y = array1d(1..28, [7, 14, 14, 4, 21, 7, 14, 14, 4, 18, 21, 17, 4, 7, 5,
    6, 18, 3, 7, 5, 18, 3, 12, 6, 18, 21, 17, 4]);

opt_height = 60;

max_y = 21;

